p cnf 321 766
c uncontrollable inputs:
a 21 22 23 24 25 26 27 28 29 30 31 32 33 34 35 36 37 38 39 40 41 42 43 44 45 46 47 48 49 50 51 52 53 54 55 56 57 58 59 60 0
c state variables:
a 61 62 0
c next state variables:
a 63 64 0
c controllable inputs
d 1 21 22 23 24 25 26 27 28 29 30 31 32 33 34 35 36 37 38 39 40 41 42 43 44 45 46 47 48 49 50 51 52 53 54 55 56 57 58 59 60 61 62 0
d 2 21 22 23 24 25 26 27 28 29 30 31 32 33 34 35 36 37 38 39 40 41 42 43 44 45 46 47 48 49 50 51 52 53 54 55 56 57 58 59 60 61 62 0
d 3 21 22 23 24 25 26 27 28 29 30 31 32 33 34 35 36 37 38 39 40 41 42 43 44 45 46 47 48 49 50 51 52 53 54 55 56 57 58 59 60 61 62 0
d 4 21 22 23 24 25 26 27 28 29 30 31 32 33 34 35 36 37 38 39 40 41 42 43 44 45 46 47 48 49 50 51 52 53 54 55 56 57 58 59 60 61 62 0
d 5 21 22 23 24 25 26 27 28 29 30 31 32 33 34 35 36 37 38 39 40 41 42 43 44 45 46 47 48 49 50 51 52 53 54 55 56 57 58 59 60 61 62 0
d 6 21 22 23 24 25 26 27 28 29 30 31 32 33 34 35 36 37 38 39 40 41 42 43 44 45 46 47 48 49 50 51 52 53 54 55 56 57 58 59 60 61 62 0
d 7 21 22 23 24 25 26 27 28 29 30 31 32 33 34 35 36 37 38 39 40 41 42 43 44 45 46 47 48 49 50 51 52 53 54 55 56 57 58 59 60 61 62 0
d 8 21 22 23 24 25 26 27 28 29 30 31 32 33 34 35 36 37 38 39 40 41 42 43 44 45 46 47 48 49 50 51 52 53 54 55 56 57 58 59 60 61 62 0
d 9 21 22 23 24 25 26 27 28 29 30 31 32 33 34 35 36 37 38 39 40 41 42 43 44 45 46 47 48 49 50 51 52 53 54 55 56 57 58 59 60 61 62 0
d 10 21 22 23 24 25 26 27 28 29 30 31 32 33 34 35 36 37 38 39 40 41 42 43 44 45 46 47 48 49 50 51 52 53 54 55 56 57 58 59 60 61 62 0
d 11 21 22 23 24 25 26 27 28 29 30 31 32 33 34 35 36 37 38 39 40 41 42 43 44 45 46 47 48 49 50 51 52 53 54 55 56 57 58 59 60 61 62 0
d 12 21 22 23 24 25 26 27 28 29 30 31 32 33 34 35 36 37 38 39 40 41 42 43 44 45 46 47 48 49 50 51 52 53 54 55 56 57 58 59 60 61 62 0
d 13 21 22 23 24 25 26 27 28 29 30 31 32 33 34 35 36 37 38 39 40 41 42 43 44 45 46 47 48 49 50 51 52 53 54 55 56 57 58 59 60 61 62 0
d 14 21 22 23 24 25 26 27 28 29 30 31 32 33 34 35 36 37 38 39 40 41 42 43 44 45 46 47 48 49 50 51 52 53 54 55 56 57 58 59 60 61 62 0
d 15 21 22 23 24 25 26 27 28 29 30 31 32 33 34 35 36 37 38 39 40 41 42 43 44 45 46 47 48 49 50 51 52 53 54 55 56 57 58 59 60 61 62 0
d 16 21 22 23 24 25 26 27 28 29 30 31 32 33 34 35 36 37 38 39 40 41 42 43 44 45 46 47 48 49 50 51 52 53 54 55 56 57 58 59 60 61 62 0
d 17 21 22 23 24 25 26 27 28 29 30 31 32 33 34 35 36 37 38 39 40 41 42 43 44 45 46 47 48 49 50 51 52 53 54 55 56 57 58 59 60 61 62 0
d 18 21 22 23 24 25 26 27 28 29 30 31 32 33 34 35 36 37 38 39 40 41 42 43 44 45 46 47 48 49 50 51 52 53 54 55 56 57 58 59 60 61 62 0
d 19 21 22 23 24 25 26 27 28 29 30 31 32 33 34 35 36 37 38 39 40 41 42 43 44 45 46 47 48 49 50 51 52 53 54 55 56 57 58 59 60 61 62 0
d 20 21 22 23 24 25 26 27 28 29 30 31 32 33 34 35 36 37 38 39 40 41 42 43 44 45 46 47 48 49 50 51 52 53 54 55 56 57 58 59 60 61 62 0
c winning region (state)
d 65 61 62 0
c winning region (next state)
d 66 63 64 0
c tseitin variables
e 67 68 69 70 71 72 73 74 75 76 77 78 79 80 81 82 83 84 85 86 87 88 89 90 91 92 93 94 95 96 97 98 99 100 101 102 103 104 105 106 107 108 109 110 111 112 113 114 115 116 117 118 119 120 121 122 123 124 125 126 127 128 129 130 131 132 133 134 135 136 137 138 139 140 141 142 143 144 145 146 147 148 149 150 151 152 153 154 155 156 157 158 159 160 161 162 163 164 165 166 167 168 169 170 171 172 173 174 175 176 177 178 179 180 181 182 183 184 185 186 187 188 189 190 191 192 193 194 195 196 197 198 199 200 201 202 203 204 205 206 207 208 209 210 211 212 213 214 215 216 217 218 219 220 221 222 223 224 225 226 227 228 229 230 231 232 233 234 235 236 237 238 239 240 241 242 243 244 245 246 247 248 249 250 251 252 253 254 255 256 257 258 259 260 261 262 263 264 265 266 267 268 269 270 271 272 273 274 275 276 277 278 279 280 281 282 283 284 285 286 287 288 289 290 291 292 293 294 295 296 297 298 299 300 301 302 303 304 305 306 307 308 309 310 311 312 313 314 315 316 317 318 319 320 321 0
c clauses:
-67 -63 0
-67 61 0
67 63 -61 0
-68 63 0
-68 -61 0
68 -63 61 0
-69 -67 0
-69 -68 0
69 67 68 0
-70 -64 0
-70 62 0
70 64 -62 0
-71 64 0
-71 -62 0
71 -64 62 0
-72 -70 0
-72 -71 0
72 70 71 0
-73 69 0
-73 72 0
73 -69 -72 0
-74 66 0
-74 -65 0
74 -66 65 0
-75 -66 0
-75 65 0
75 66 -65 0
-76 -74 0
-76 -75 0
76 74 75 0
-77 73 0
-77 -76 0
77 -73 76 0
-78 -42 0
-78 -22 0
78 42 22 0
-79 42 0
-79 22 0
79 -42 -22 0
80 -78 0
80 -79 0
-80 78 79 0
-81 41 0
-81 21 0
81 -41 -21 0
-82 -80 0
-82 -81 0
82 80 81 0
-83 80 0
-83 81 0
83 -80 -81 0
-84 -82 0
-84 -83 0
84 82 83 0
-85 2 0
-85 84 0
85 -2 -84 0
-86 -2 0
-86 -84 0
86 2 84 0
-87 -85 0
-87 -86 0
87 85 86 0
-88 -41 0
-88 -21 0
88 41 21 0
-89 -81 0
-89 -88 0
89 81 88 0
-90 1 0
-90 -89 0
90 -1 89 0
-91 -1 0
-91 89 0
91 1 -89 0
-92 -90 0
-92 -91 0
92 90 91 0
-93 87 0
-93 92 0
93 -87 -92 0
-94 -43 0
-94 -23 0
94 43 23 0
-95 43 0
-95 23 0
95 -43 -23 0
96 -94 0
96 -95 0
-96 94 95 0
-97 81 0
-97 -78 0
97 -81 78 0
-98 -97 0
-98 -79 0
98 97 79 0
-99 96 0
-99 98 0
99 -96 -98 0
-100 -96 0
-100 -98 0
100 96 98 0
-101 -99 0
-101 -100 0
101 99 100 0
-102 3 0
-102 -101 0
102 -3 101 0
-103 -3 0
-103 101 0
103 3 -101 0
-104 -102 0
-104 -103 0
104 102 103 0
-105 93 0
-105 104 0
105 -93 -104 0
-106 -44 0
-106 -24 0
106 44 24 0
-107 44 0
-107 24 0
107 -44 -24 0
108 -106 0
108 -107 0
-108 106 107 0
-109 -98 0
-109 -94 0
109 98 94 0
-110 -109 0
-110 -95 0
110 109 95 0
-111 108 0
-111 110 0
111 -108 -110 0
-112 -108 0
-112 -110 0
112 108 110 0
-113 -111 0
-113 -112 0
113 111 112 0
-114 4 0
-114 -113 0
114 -4 113 0
-115 -4 0
-115 113 0
115 4 -113 0
-116 -114 0
-116 -115 0
116 114 115 0
-117 105 0
-117 116 0
117 -105 -116 0
-118 -45 0
-118 -25 0
118 45 25 0
-119 45 0
-119 25 0
119 -45 -25 0
120 -118 0
120 -119 0
-120 118 119 0
-121 -110 0
-121 -106 0
121 110 106 0
-122 -121 0
-122 -107 0
122 121 107 0
-123 120 0
-123 122 0
123 -120 -122 0
-124 -120 0
-124 -122 0
124 120 122 0
-125 -123 0
-125 -124 0
125 123 124 0
-126 5 0
-126 -125 0
126 -5 125 0
-127 -5 0
-127 125 0
127 5 -125 0
-128 -126 0
-128 -127 0
128 126 127 0
-129 117 0
-129 128 0
129 -117 -128 0
-130 -46 0
-130 -26 0
130 46 26 0
-131 46 0
-131 26 0
131 -46 -26 0
132 -130 0
132 -131 0
-132 130 131 0
-133 -122 0
-133 -118 0
133 122 118 0
-134 -133 0
-134 -119 0
134 133 119 0
-135 132 0
-135 134 0
135 -132 -134 0
-136 -132 0
-136 -134 0
136 132 134 0
-137 -135 0
-137 -136 0
137 135 136 0
-138 6 0
-138 -137 0
138 -6 137 0
-139 -6 0
-139 137 0
139 6 -137 0
-140 -138 0
-140 -139 0
140 138 139 0
-141 129 0
-141 140 0
141 -129 -140 0
-142 -47 0
-142 -27 0
142 47 27 0
-143 47 0
-143 27 0
143 -47 -27 0
144 -142 0
144 -143 0
-144 142 143 0
-145 -134 0
-145 -130 0
145 134 130 0
-146 -145 0
-146 -131 0
146 145 131 0
-147 144 0
-147 146 0
147 -144 -146 0
-148 -144 0
-148 -146 0
148 144 146 0
-149 -147 0
-149 -148 0
149 147 148 0
-150 7 0
-150 -149 0
150 -7 149 0
-151 -7 0
-151 149 0
151 7 -149 0
-152 -150 0
-152 -151 0
152 150 151 0
-153 141 0
-153 152 0
153 -141 -152 0
-154 -48 0
-154 -28 0
154 48 28 0
-155 48 0
-155 28 0
155 -48 -28 0
156 -154 0
156 -155 0
-156 154 155 0
-157 -146 0
-157 -142 0
157 146 142 0
-158 -157 0
-158 -143 0
158 157 143 0
-159 156 0
-159 158 0
159 -156 -158 0
-160 -156 0
-160 -158 0
160 156 158 0
-161 -159 0
-161 -160 0
161 159 160 0
-162 8 0
-162 -161 0
162 -8 161 0
-163 -8 0
-163 161 0
163 8 -161 0
-164 -162 0
-164 -163 0
164 162 163 0
-165 153 0
-165 164 0
165 -153 -164 0
-166 -49 0
-166 -29 0
166 49 29 0
-167 49 0
-167 29 0
167 -49 -29 0
168 -166 0
168 -167 0
-168 166 167 0
-169 -158 0
-169 -154 0
169 158 154 0
-170 -169 0
-170 -155 0
170 169 155 0
-171 168 0
-171 170 0
171 -168 -170 0
-172 -168 0
-172 -170 0
172 168 170 0
-173 -171 0
-173 -172 0
173 171 172 0
-174 9 0
-174 -173 0
174 -9 173 0
-175 -9 0
-175 173 0
175 9 -173 0
-176 -174 0
-176 -175 0
176 174 175 0
-177 165 0
-177 176 0
177 -165 -176 0
-178 -50 0
-178 -30 0
178 50 30 0
-179 50 0
-179 30 0
179 -50 -30 0
180 -178 0
180 -179 0
-180 178 179 0
-181 -170 0
-181 -166 0
181 170 166 0
-182 -181 0
-182 -167 0
182 181 167 0
-183 180 0
-183 182 0
183 -180 -182 0
-184 -180 0
-184 -182 0
184 180 182 0
-185 -183 0
-185 -184 0
185 183 184 0
-186 10 0
-186 -185 0
186 -10 185 0
-187 -10 0
-187 185 0
187 10 -185 0
-188 -186 0
-188 -187 0
188 186 187 0
-189 177 0
-189 188 0
189 -177 -188 0
-190 -51 0
-190 -31 0
190 51 31 0
-191 51 0
-191 31 0
191 -51 -31 0
192 -190 0
192 -191 0
-192 190 191 0
-193 -182 0
-193 -178 0
193 182 178 0
-194 -193 0
-194 -179 0
194 193 179 0
-195 192 0
-195 194 0
195 -192 -194 0
-196 -192 0
-196 -194 0
196 192 194 0
-197 -195 0
-197 -196 0
197 195 196 0
-198 11 0
-198 -197 0
198 -11 197 0
-199 -11 0
-199 197 0
199 11 -197 0
-200 -198 0
-200 -199 0
200 198 199 0
-201 189 0
-201 200 0
201 -189 -200 0
-202 -52 0
-202 -32 0
202 52 32 0
-203 52 0
-203 32 0
203 -52 -32 0
204 -202 0
204 -203 0
-204 202 203 0
-205 -194 0
-205 -190 0
205 194 190 0
-206 -205 0
-206 -191 0
206 205 191 0
-207 204 0
-207 206 0
207 -204 -206 0
-208 -204 0
-208 -206 0
208 204 206 0
-209 -207 0
-209 -208 0
209 207 208 0
-210 12 0
-210 -209 0
210 -12 209 0
-211 -12 0
-211 209 0
211 12 -209 0
-212 -210 0
-212 -211 0
212 210 211 0
-213 201 0
-213 212 0
213 -201 -212 0
-214 -53 0
-214 -33 0
214 53 33 0
-215 53 0
-215 33 0
215 -53 -33 0
216 -214 0
216 -215 0
-216 214 215 0
-217 -206 0
-217 -202 0
217 206 202 0
-218 -217 0
-218 -203 0
218 217 203 0
-219 216 0
-219 218 0
219 -216 -218 0
-220 -216 0
-220 -218 0
220 216 218 0
-221 -219 0
-221 -220 0
221 219 220 0
-222 13 0
-222 -221 0
222 -13 221 0
-223 -13 0
-223 221 0
223 13 -221 0
-224 -222 0
-224 -223 0
224 222 223 0
-225 213 0
-225 224 0
225 -213 -224 0
-226 -54 0
-226 -34 0
226 54 34 0
-227 54 0
-227 34 0
227 -54 -34 0
228 -226 0
228 -227 0
-228 226 227 0
-229 -218 0
-229 -214 0
229 218 214 0
-230 -229 0
-230 -215 0
230 229 215 0
-231 228 0
-231 230 0
231 -228 -230 0
-232 -228 0
-232 -230 0
232 228 230 0
-233 -231 0
-233 -232 0
233 231 232 0
-234 14 0
-234 -233 0
234 -14 233 0
-235 -14 0
-235 233 0
235 14 -233 0
-236 -234 0
-236 -235 0
236 234 235 0
-237 225 0
-237 236 0
237 -225 -236 0
-238 -55 0
-238 -35 0
238 55 35 0
-239 55 0
-239 35 0
239 -55 -35 0
240 -238 0
240 -239 0
-240 238 239 0
-241 -230 0
-241 -226 0
241 230 226 0
-242 -241 0
-242 -227 0
242 241 227 0
-243 240 0
-243 242 0
243 -240 -242 0
-244 -240 0
-244 -242 0
244 240 242 0
-245 -243 0
-245 -244 0
245 243 244 0
-246 15 0
-246 -245 0
246 -15 245 0
-247 -15 0
-247 245 0
247 15 -245 0
-248 -246 0
-248 -247 0
248 246 247 0
-249 237 0
-249 248 0
249 -237 -248 0
-250 -56 0
-250 -36 0
250 56 36 0
-251 56 0
-251 36 0
251 -56 -36 0
252 -250 0
252 -251 0
-252 250 251 0
-253 -242 0
-253 -238 0
253 242 238 0
-254 -253 0
-254 -239 0
254 253 239 0
-255 252 0
-255 254 0
255 -252 -254 0
-256 -252 0
-256 -254 0
256 252 254 0
-257 -255 0
-257 -256 0
257 255 256 0
-258 16 0
-258 -257 0
258 -16 257 0
-259 -16 0
-259 257 0
259 16 -257 0
-260 -258 0
-260 -259 0
260 258 259 0
-261 249 0
-261 260 0
261 -249 -260 0
-262 -57 0
-262 -37 0
262 57 37 0
-263 57 0
-263 37 0
263 -57 -37 0
264 -262 0
264 -263 0
-264 262 263 0
-265 -254 0
-265 -250 0
265 254 250 0
-266 -265 0
-266 -251 0
266 265 251 0
-267 264 0
-267 266 0
267 -264 -266 0
-268 -264 0
-268 -266 0
268 264 266 0
-269 -267 0
-269 -268 0
269 267 268 0
-270 17 0
-270 -269 0
270 -17 269 0
-271 -17 0
-271 269 0
271 17 -269 0
-272 -270 0
-272 -271 0
272 270 271 0
-273 261 0
-273 272 0
273 -261 -272 0
-274 -58 0
-274 -38 0
274 58 38 0
-275 58 0
-275 38 0
275 -58 -38 0
276 -274 0
276 -275 0
-276 274 275 0
-277 -266 0
-277 -262 0
277 266 262 0
-278 -277 0
-278 -263 0
278 277 263 0
-279 276 0
-279 278 0
279 -276 -278 0
-280 -276 0
-280 -278 0
280 276 278 0
-281 -279 0
-281 -280 0
281 279 280 0
-282 18 0
-282 -281 0
282 -18 281 0
-283 -18 0
-283 281 0
283 18 -281 0
-284 -282 0
-284 -283 0
284 282 283 0
-285 273 0
-285 284 0
285 -273 -284 0
-286 -59 0
-286 -39 0
286 59 39 0
-287 59 0
-287 39 0
287 -59 -39 0
288 -286 0
288 -287 0
-288 286 287 0
-289 -278 0
-289 -274 0
289 278 274 0
-290 -289 0
-290 -275 0
290 289 275 0
-291 288 0
-291 290 0
291 -288 -290 0
-292 -288 0
-292 -290 0
292 288 290 0
-293 -291 0
-293 -292 0
293 291 292 0
-294 19 0
-294 -293 0
294 -19 293 0
-295 -19 0
-295 293 0
295 19 -293 0
-296 -294 0
-296 -295 0
296 294 295 0
-297 285 0
-297 296 0
297 -285 -296 0
-298 -290 0
-298 -286 0
298 290 286 0
-299 -298 0
-299 -287 0
299 298 287 0
-300 -60 0
-300 299 0
300 60 -299 0
-301 60 0
-301 -299 0
301 -60 299 0
-302 -300 0
-302 -301 0
302 300 301 0
-303 40 0
-303 302 0
303 -40 -302 0
-304 -40 0
-304 -302 0
304 40 302 0
-305 -303 0
-305 -304 0
305 303 304 0
-306 20 0
-306 -305 0
306 -20 305 0
-307 -20 0
-307 305 0
307 20 -305 0
-308 -306 0
-308 -307 0
308 306 307 0
-309 297 0
-309 308 0
309 -297 -308 0
-310 -64 0
-310 -309 0
310 64 309 0
-311 64 0
-311 309 0
311 -64 -309 0
-312 -310 0
-312 -311 0
312 310 311 0
-313 63 0
-313 312 0
313 -63 -312 0
-314 313 0
-314 75 0
314 -313 -75 0
-315 62 0
-315 61 0
315 -62 -61 0
-316 65 0
-316 315 0
316 -65 -315 0
-317 -62 0
-317 -61 0
317 62 61 0
-318 -65 0
-318 317 0
318 65 -317 0
-319 -316 0
-319 -318 0
319 316 318 0
-320 -314 0
-320 319 0
320 314 -319 0
-321 -77 0
-321 320 0
321 77 -320 0
321 0
